
Gurobi 6.0.2 (win64) logging started 06/11/15 21:05:16

Warning: unknown variable 'kDash_dN' in bounds section
Read LP format model from file C:\MT\repository\VRPTWMS\instances\mip\toCalculate\TestInstance2Freight_No_3.lp
Reading time = 0.00 seconds
(null): 73 rows, 54 columns, 237 nonzeros
Optimize a model with 73 rows, 54 columns and 237 nonzeros
Model has 39 quadratic constraints
WARNING: Only barrier available for SOCP models
Coefficient statistics:
  Matrix range    [1e+00, 3e+02]
  Objective range [1e+00, 1e+02]
  Bounds range    [1e+00, 3e+02]
  RHS range       [1e+00, 1e+02]
Presolve removed 19 rows and 7 columns
Presolve time: 0.00s

Explored 0 nodes (0 simplex iterations) in 0.00 seconds
Thread count was 1 (of 4 available processors)

Model is infeasible
Best objective -, best bound -, gap -
